[2026-03-23T14:02:10.677Z] Pipeline "set_exp_2_exp_2_n035_c005_g005" → 2026_03_23_14_02_10_set_exp_2_exp_2_n035_c005_g005_max.sol
Set parameter WLSAccessID
Set parameter WLSSecret
Set parameter LicenseID to value 2792458
Set parameter LogFile to value "gurobi.log"
Using license file /root/gurobi.lic
Academic license 2792458 - for non-commercial use only - registered to an___@studenti.unipg.it

Gurobi Optimizer version 13.0.1 build v13.0.1rc0 (linux64 - "Ubuntu 24.04.4 LTS")
Copyright (c) 2026, Gurobi Optimization, LLC

Warning: Duplicate section found (read 'binary') - Is a variable name equal to an LP file format keyword?
Warning: Duplicate section found (read 'binary') - Is a variable name equal to an LP file format keyword?
Warning: Duplicate section found (read 'binary') - Is a variable name equal to an LP file format keyword?
Warning: Duplicate section found (read 'binary') - Is a variable name equal to an LP file format keyword?
Warning: Duplicate section found (read 'binary') - Is a variable name equal to an LP file format keyword?
Warning: Duplicate section found (read 'binary') - Is a variable name equal to an LP file format keyword?
Warning: Duplicate section found (read 'binary') - Is a variable name equal to an LP file format keyword?
Warning: Duplicate section found (read 'binary') - Is a variable name equal to an LP file format keyword?
Warning: Duplicate section found (read 'binary') - Is a variable name equal to an LP file format keyword?
Warning: Duplicate section found (read 'binary') - Is a variable name equal to an LP file format keyword?
Warning: Further warnings of this type will be omitted.
Read LP format model from file /root/bgw/data/uploads/2026_03_23_14_02_10_set_exp_2_exp_2_n035_c005_g005_max.lp
Reading time = 0.01 seconds
: 14606 rows, 918 columns, 43478 nonzeros

Using Gurobi shared library /opt/gurobi1301/linux64/lib/libgurobi.so.13.0.1

CPU model: AMD EPYC-Genoa Processor, instruction set [SSE2|AVX|AVX2|AVX512]
Thread count: 16 physical cores, 16 logical processors, using up to 16 threads

Academic license 2792458 - for non-commercial use only - registered to an___@studenti.unipg.it
Optimize a model with 14606 rows, 918 columns and 43478 nonzeros (Max)
Model fingerprint: 0x79ab9931
Model has 9 linear objective coefficients
Variable types: 44 continuous, 874 integer (874 binary)
Coefficient statistics:
  Matrix range     [1e+00, 4e+01]
  Objective range  [1e+00, 1e+00]
  Bounds range     [1e+00, 1e+00]
  RHS range        [1e+00, 4e+01]

Found heuristic solution: objective 9.0000000
Presolve removed 1468 rows and 292 columns
Presolve time: 0.05s
Presolved: 13138 rows, 626 columns, 39862 nonzeros
Variable types: 0 continuous, 626 integer (612 binary)

Root relaxation: objective 3.900000e+01, 1113 iterations, 0.11 seconds (0.16 work units)

    Nodes    |    Current Node    |     Objective Bounds      |     Work
 Expl Unexpl |  Obj  Depth IntInf | Incumbent    BestBd   Gap | It/Node Time

     0     0   39.00000    0   34    9.00000   39.00000   333%     -    0s
H    0     0                      25.0000000   39.00000  56.0%     -    0s
H    0     0                      26.0000000   39.00000  50.0%     -    0s
     0     0   39.00000    0   34   26.00000   39.00000  50.0%     -    0s
     0     0   39.00000    0   38   26.00000   39.00000  50.0%     -    0s
     0     0   39.00000    0   40   26.00000   39.00000  50.0%     -    0s
     0     0   39.00000    0   27   26.00000   39.00000  50.0%     -    0s
     0     0   39.00000    0   30   26.00000   39.00000  50.0%     -    0s
     0     0   39.00000    0   29   26.00000   39.00000  50.0%     -    0s
     0     0   39.00000    0   30   26.00000   39.00000  50.0%     -    0s
     0     0   39.00000    0   29   26.00000   39.00000  50.0%     -    0s
     0     0   39.00000    0   29   26.00000   39.00000  50.0%     -    0s
     0     0   39.00000    0   30   26.00000   39.00000  50.0%     -    0s
     0     0   39.00000    0   31   26.00000   39.00000  50.0%     -    0s
     0     0   39.00000    0   31   26.00000   39.00000  50.0%     -    0s
     0     0   39.00000    0   30   26.00000   39.00000  50.0%     -    0s
     0     0   39.00000    0   29   26.00000   39.00000  50.0%     -    0s
     0     0   39.00000    0   28   26.00000   39.00000  50.0%     -    0s
     0     0   39.00000    0   30   26.00000   39.00000  50.0%     -    0s
     0     0   39.00000    0   30   26.00000   39.00000  50.0%     -    0s
     0     0   39.00000    0   30   26.00000   39.00000  50.0%     -    0s
     0     0   39.00000    0   29   26.00000   39.00000  50.0%     -    0s
     0     2   39.00000    0   29   26.00000   39.00000  50.0%     -    0s

Cutting planes:
  Cover: 13
  MIR: 19
  Inf proof: 34
  Zero half: 10
  Mod-K: 3

Explored 1758 nodes (223153 simplex iterations) in 4.27 seconds (7.08 work units)
Thread count was 16 (of 16 available processors)

Solution count 3: 26 25 9 

Optimal solution found (tolerance 1.00e-04)
Best objective 2.600000000000e+01, best bound 2.600000000000e+01, gap 0.0000%

Wrote result file '/root/bgw/data/results/2026_03_23_14_02_10_set_exp_2_exp_2_n035_c005_g005_max.sol'

